(set-logic BV) (define-fun origCir ((n120 Bool) (n168 Bool) (n217 Bool) (n226 Bool)) Bool (and (and (xor (not n217) (xor n168 n120)) (not (xor (and (not n217) (xor n168 n120)) (and (not n168) (not n120))))) n226)) (synth-fun skel ((n120 Bool) (n168 Bool) (n217 Bool) (n226 Bool)) Bool) (declare-var n120 Bool) (declare-var n168 Bool) (declare-var n217 Bool) (declare-var n226 Bool) (constraint (= (origCir n120 n168 n217 n226) (skel n120 n168 n217 n226))) (check-synth)
